16 4
31 55 88 34 107 87 94 62 13 34 83 61 41 72 80 12
43 66 85 27 83 72 74 42 13 25 72 82 55 71 89 21
31 50 78 31 100 78 77 36 29 35 57 67 42 72 90 30
38 55 91 14 107 78 88 62 23 25 80 71 49 54 99 15
